
(set-logic HORN)
(declare-fun Z_1693 () Int)
(declare-fun S_383 (Int) Int)
(declare-fun zero_124 () Int)
(declare-fun succ_121 (Int) Int)
(declare-fun diseqInt (Int Int) Bool)
(declare-fun unS_561 (Int Int) Bool)
(declare-fun isZ_353 (Int) Bool)
(declare-fun isS_353 (Int) Bool)
(assert (forall ((x_51084 Int))
	(unS_561 x_51084 (S_383 x_51084))))
(assert (isZ_353 Z_1693))
(assert (forall ((x_51086 Int))
	(isS_353 (S_383 x_51086))))
(assert (forall ((x_51087 Int))
	(diseqInt Z_1693 (S_383 x_51087))))
(assert (forall ((x_51088 Int))
	(diseqInt (S_383 x_51088) Z_1693)))
(assert (forall ((x_51089 Int) (x_51090 Int))
	(=> (diseqInt x_51089 x_51090) (diseqInt (S_383 x_51089) (S_383 x_51090)))))
(declare-fun add_300 (Int Int Int) Bool)
(declare-fun minus_297 (Int Int Int) Bool)
(declare-fun le_280 (Int Int) Bool)
(declare-fun ge_280 (Int Int) Bool)
(declare-fun lt_299 (Int Int) Bool)
(declare-fun gt_283 (Int Int) Bool)
(declare-fun mult_280 (Int Int Int) Bool)
(declare-fun div_280 (Int Int Int) Bool)
(declare-fun mod_282 (Int Int Int) Bool)
(assert (forall ((y_1899 Int))
	(add_300 y_1899 Z_1693 y_1899)))
(assert (forall ((x_51060 Int) (y_1899 Int) (r_349 Int))
	(=> (add_300 r_349 x_51060 y_1899) (add_300 (S_383 r_349) (S_383 x_51060) y_1899))))
(assert (forall ((y_1899 Int))
	(minus_297 Z_1693 Z_1693 y_1899)))
(assert (forall ((x_51060 Int) (y_1899 Int) (r_349 Int))
	(=> (minus_297 r_349 x_51060 y_1899) (minus_297 (S_383 r_349) (S_383 x_51060) y_1899))))
(assert (forall ((y_1899 Int))
	(le_280 Z_1693 y_1899)))
(assert (forall ((x_51060 Int) (y_1899 Int))
	(=> (le_280 x_51060 y_1899) (le_280 (S_383 x_51060) (S_383 y_1899)))))
(assert (forall ((y_1899 Int))
	(ge_280 y_1899 Z_1693)))
(assert (forall ((x_51060 Int) (y_1899 Int))
	(=> (ge_280 x_51060 y_1899) (ge_280 (S_383 x_51060) (S_383 y_1899)))))
(assert (forall ((y_1899 Int))
	(lt_299 Z_1693 (S_383 y_1899))))
(assert (forall ((x_51060 Int) (y_1899 Int))
	(=> (lt_299 x_51060 y_1899) (lt_299 (S_383 x_51060) (S_383 y_1899)))))
(assert (forall ((y_1899 Int))
	(gt_283 (S_383 y_1899) Z_1693)))
(assert (forall ((x_51060 Int) (y_1899 Int))
	(=> (gt_283 x_51060 y_1899) (gt_283 (S_383 x_51060) (S_383 y_1899)))))
(assert (forall ((y_1899 Int))
	(mult_280 Z_1693 Z_1693 y_1899)))
(assert (forall ((x_51060 Int) (y_1899 Int) (r_349 Int) (z_1694 Int))
	(=> (and (mult_280 r_349 x_51060 y_1899) (add_300 z_1694 r_349 y_1899)) (mult_280 z_1694 (S_383 x_51060) y_1899))))
(assert (forall ((x_51060 Int) (y_1899 Int))
	(=> (lt_299 x_51060 y_1899) (div_280 Z_1693 x_51060 y_1899))))
(assert (forall ((x_51060 Int) (y_1899 Int) (r_349 Int) (z_1694 Int))
	(=> (and (ge_280 x_51060 y_1899) (minus_297 z_1694 x_51060 y_1899) (div_280 r_349 z_1694 y_1899)) (div_280 (S_383 r_349) x_51060 y_1899))))
(assert (forall ((x_51060 Int) (y_1899 Int))
	(=> (lt_299 x_51060 y_1899) (mod_282 x_51060 x_51060 y_1899))))
(assert (forall ((x_51060 Int) (y_1899 Int) (r_349 Int) (z_1694 Int))
	(=> (and (ge_280 x_51060 y_1899) (minus_297 z_1694 x_51060 y_1899) (mod_282 r_349 z_1694 y_1899)) (mod_282 r_349 x_51060 y_1899))))
(declare-datatypes ((list_201 0)) (((nil_229) (cons_201 (head_402 Int) (tail_402 list_201)))))
(declare-fun diseqlist_201 (list_201 list_201) Bool)
(declare-fun head_403 (Int list_201) Bool)
(declare-fun tail_403 (list_201 list_201) Bool)
(declare-fun isnil_229 (list_201) Bool)
(declare-fun iscons_201 (list_201) Bool)
(assert (forall ((x_51062 Int) (x_51063 list_201))
	(head_403 x_51062 (cons_201 x_51062 x_51063))))
(assert (forall ((x_51062 Int) (x_51063 list_201))
	(tail_403 x_51063 (cons_201 x_51062 x_51063))))
(assert (isnil_229 nil_229))
(assert (forall ((x_51065 Int) (x_51066 list_201))
	(iscons_201 (cons_201 x_51065 x_51066))))
(assert (forall ((x_51067 Int) (x_51068 list_201))
	(diseqlist_201 nil_229 (cons_201 x_51067 x_51068))))
(assert (forall ((x_51069 Int) (x_51070 list_201))
	(diseqlist_201 (cons_201 x_51069 x_51070) nil_229)))
(assert (forall ((x_51071 Int) (x_51072 list_201) (x_51073 Int) (x_51074 list_201))
	(=> (diseqInt x_51071 x_51073) (diseqlist_201 (cons_201 x_51071 x_51072) (cons_201 x_51073 x_51074)))))
(assert (forall ((x_51071 Int) (x_51072 list_201) (x_51073 Int) (x_51074 list_201))
	(=> (diseqlist_201 x_51072 x_51074) (diseqlist_201 (cons_201 x_51071 x_51072) (cons_201 x_51073 x_51074)))))
(declare-fun diseqInt (Int Int) Bool)
(declare-fun p_345 (Int Int) Bool)
(declare-fun iszero_121 (Int) Bool)
(declare-fun issucc_121 (Int) Bool)
(assert (forall ((x_51076 Int))
	(p_345 x_51076 (succ_121 x_51076))))
(assert (iszero_121 zero_124))
(assert (forall ((x_51078 Int))
	(issucc_121 (succ_121 x_51078))))
(assert (forall ((x_51079 Int))
	(diseqInt zero_124 (succ_121 x_51079))))
(assert (forall ((x_51080 Int))
	(diseqInt (succ_121 x_51080) zero_124)))
(assert (forall ((x_51081 Int) (x_51082 Int))
	(=> (diseqInt x_51081 x_51082) (diseqInt (succ_121 x_51081) (succ_121 x_51082)))))
(declare-fun snoc_1 (list_201 Int list_201) Bool)
(assert (forall ((x_51045 list_201) (z_1689 Int) (ys_174 list_201) (x_51040 Int))
	(=> (snoc_1 x_51045 x_51040 ys_174) (snoc_1 (cons_201 z_1689 x_51045) x_51040 (cons_201 z_1689 ys_174)))))
(assert (forall ((x_51040 Int))
	(snoc_1 (cons_201 x_51040 nil_229) x_51040 nil_229)))
(declare-fun rotate_4 (list_201 Int list_201) Bool)
(assert (forall ((x_51047 list_201) (x_51048 list_201) (z_1691 Int) (xs_543 list_201) (z_1690 Int))
	(=> (and (snoc_1 x_51048 z_1691 xs_543) (rotate_4 x_51047 z_1690 x_51048)) (rotate_4 x_51047 (succ_121 z_1690) (cons_201 z_1691 xs_543)))))
(assert (forall ((z_1690 Int))
	(rotate_4 nil_229 (succ_121 z_1690) nil_229)))
(assert (forall ((x_51051 list_201))
	(rotate_4 x_51051 zero_124 x_51051)))
(declare-fun x_51042 (list_201 list_201 list_201) Bool)
(assert (forall ((x_51053 list_201) (z_1692 Int) (xs_544 list_201) (y_1898 list_201))
	(=> (x_51042 x_51053 xs_544 y_1898) (x_51042 (cons_201 z_1692 x_51053) (cons_201 z_1692 xs_544) y_1898))))
(assert (forall ((x_51054 list_201))
	(x_51042 x_51054 nil_229 x_51054)))
(assert (forall ((x_51055 list_201) (x_51056 list_201) (x_51057 list_201) (x_51058 list_201) (x_51059 list_201) (n_96 Int) (xs_545 list_201))
	(=> (and true (diseqlist_201 x_51056 x_51059) (x_51042 x_51055 xs_545 xs_545) (rotate_4 x_51056 n_96 x_51055) (rotate_4 x_51057 n_96 xs_545) (rotate_4 x_51058 n_96 xs_545) (x_51042 x_51059 x_51057 x_51058)) false)))
(check-sat)
